NAME: I1946-n45-k6
COMMENT : (Fake et al, No of trucks: 6, Optimal value: )
TYPE : CVRP
DIMENSION : 45
EDGE_WEIGHT_TYPE : EUC_2D
CAPACITY : 24
NODE_COORD_SECTION
1 744 521
2 738 654
3 804 78
4 722 438
5 816 137
6 620 578
7 246 583
8 855 525
9 836 248
10 159 553
11 73 678
12 781 930
13 102 290
14 677 411
15 46 640
16 801 646
17 776 161
18 334 168
19 110 991
20 437 638
21 626 332
22 408 170
23 158 323
24 52 435
25 44 970
26 616 877
27 958 103
28 143 882
29 369 930
30 966 635
31 493 983
32 547 247
33 713 88
34 210 145
35 819 424
36 324 788
37 857 55
38 386 465
39 657 688
40 684 751
41 359 644
42 530 679
43 568 449
44 5 100
45 518 478
DEMAND_SECTION
1 0
2 3
3 2
4 2
5 4
6 3
7 3
8 1
9 3
10 4
11 4
12 4
13 3
14 4
15 1
16 1
17 1
18 3
19 3
20 2
21 3
22 1
23 4
24 3
25 2
26 4
27 4
28 4
29 2
30 2
31 3
32 3
33 2
34 3
35 4
36 4
37 4
38 3
39 4
40 3
41 3
42 3
43 2
44 4
45 3
DEPOT_SECTION
 1
 -1
 EOF 